p cnf 10 27
-7 10 6 0
2 -3 -2 0
-8 6 0
8 -3 0
10 5 0
-7 4 0
10 3 7 0
9 4 -3 -2 0
-8 -3 -10 0
10 0
-2 0
-6 -1 0
10 -6 0
-8 0
9 -5 -3 0
8 -6 2 -2 0
-8 8 2 -7 0
8 -8 -5 7 0
3 7 -3 -9 0
1 0
-8 -7 4 0
2 0
9 7 0
1 -1 0
9 2 -6 0
2 -3 0
9 -5 -1 -2 0
